Route #1: 1 89 32 44 94 37 107 86 57 23 1 
Route #2: 1 79 3 14 69 2 28 12 1 
Route #3: 1 108 91 76 84 51 106 45 46 1 
Route #4: 1 70 7 47 58 41 96 68 50 1 
Route #5: 1 5 34 105 74 13 73 10 100 8 1 
Route #6: 1 38 11 77 30 52 19 62 35 48 1 
Route #7: 1 49 60 59 27 17 95 88 72 40 1 
Route #8: 1 1 78 92 67 33 103 80 18 6 1 
Route #9: 1 82 81 29 16 20 97 53 15 1 
Route #10: 1 90 42 98 85 26 22 61 104 56 24 1 
Route #11: 1 87 9 102 4 25 93 64 31 39 71 1 
Route #12: 1 63 75 54 36 99 43 83 109 1 
Route #13: 1 21 65 55 101 66 1 

Cost 27892.9
Time 2.3648


 * Another infos *

 Iterations: 110 Time: 2.3648 sec - 0.0394 min - 0.0007 horas
0.0000 h 0.0394 min
Problem dimension: 110
